TYPE : Vertex Cover
DIMENSION: 26
EDGE_DATA_SECTION:
0 2
0 7
0 16
0 25
1 7
1 8
1 15
1 18
1 19
1 20
1 25
2 6
2 12
3 14
3 25
4 5
4 6
4 15
4 16
4 17
4 19
5 15
5 16
5 19
6 10
6 11
6 13
6 17
7 9
7 22
8 12
8 14
8 19
9 10
9 11
9 16
9 20
10 14
10 17
10 24
12 14
12 16
12 23
13 15
13 17
13 21
13 22
14 17
14 20
14 23
15 18
15 24
15 25
16 17
16 20
16 22
16 23
17 20
17 23
18 24
19 21
19 25
20 21
22 23
23 25
24 25
-1
VERTEX_DEGREE:
4.0 7.0 3.0 2.0 6.0 4.0 6.0 4.0 4.0 5.0 5.0 2.0 5.0 5.0 7.0 7.0 9.0 8.0 3.0 6.0 6.0 3.0 4.0 6.0 4.0 7.0
VERTEX_COVER:
0 1 4 6 9 12 14 15 16 17 19 21 22 24 25
EOF
